### lammps input
units       real
dimension   3
boundary    p p p
atom_style  full

pair_style	lj/cut/coul/long 12.0 12.0 

bond_style	harmonic
angle_style	harmonic

read_restart ../Init/init${INDEX}.restart

pair_modify shift yes mix arithmetic

kspace_style pppm 1.0e-4
special_bonds charmm

#velocity	all create 300 ${SEED} rot yes mom yes dist gaussian

neighbor 1.0 bin
timestep 0.5  # fs
neigh_modify    every 1 delay 0 check yes

group Li type 3
group Ha type 4
group ions union Li Ha

dump			44 all custom  2000000 ./videos/video${INDEX}.lammpstrj id element mol type q x y z ix iy iz
dump_modify		44 sort id		## sort atom according to id 
dump_modify 		44 pbc yes		## remap atoms via pbc
dump_modify		44 format line "%d %s %d  %d %10f %22.18f %22.18f %22.18f %d %d %d"
dump_modify             44 element "O" "H" "Li" "Ha"


fix  	  	        5 all langevin 300. 300. 2000. ${SEED}
fix			6 all nve

fix bias Li spring couple Ha ${SPRING} 0.0 0.0 0.0 ${CENTER}

thermo_style	custom  step temp pe ke f_bias[4]
thermo	100
thermo_modify	format float %20.15g

restart 600000 ../restarts/restarta${INDEX} ../restarts/restartb${INDEX}

run 30000000 ## 15 ns
